cliques=[{252,26,166,81,135,121,223,212,237,12,0,178,98,39},{15,57,83,137,225,201,180,100,151,69,268,42,123,1,28},{124,30,193,240,85,59,44,111,270,2,168,181},{61,71,203,254,154,228,272,16,113,194,86,3},{46,17,62,32,204,114,4,125,255,242,215,72,140},{63,256,183,47,126,87,205,273,195,216,229,170,5},{274,128,6,185,89,142,19,73,172,115,156,258,244,34,218,103},{104,245,20,186,7,157,143,231,259,64,116,74,90,206,173,35,129},{75,144,91,260,65,232,174,207,105,117,275,130,8,158,187},{22,196,51,93,37,118,77,161,67,247,209,9,107,220,176},{132,263,162,119,146,52,78,197,210,278,248,235,10,23,94},{68,280,250,11,133,265,54,211,222,189,147,96,164},{15,25,17,22,20,21,18,14,24,13,19,16,23,12},{15,25,17,22,20,21,18,14,24,13,19,16,23,12},{15,25,17,22,20,21,18,14,24,13,19,16,23,12},{15,25,17,22,20,21,18,14,24,13,19,16,23,12},{15,25,17,22,20,21,18,14,24,13,19,16,23,12},{15,25,17,22,20,21,18,14,24,13,19,16,23,12},{15,25,17,22,20,21,18,14,24,13,19,16,23,12},{15,25,17,22,20,21,18,14,24,13,19,16,23,12},{104,245,20,186,7,157,143,231,259,64,116,74,90,206,173,35,129},{15,25,17,22,20,21,18,14,24,13,19,16,23,12},{15,25,17,22,20,21,18,14,24,13,19,16,23,12},{132,263,162,119,146,52,78,197,210,278,248,235,10,23,94},{15,25,17,22,20,21,18,14,24,13,19,16,23,12},{15,25,17,22,20,21,18,14,24,13,19,16,23,12},{29,32,30,26,37,38,36,31,33,27,34,35,28},{29,32,30,26,37,38,36,31,33,27,34,35,28},{15,57,83,137,225,201,180,100,151,69,268,42,123,1,28},{202,43,29,192,58,213,167,70,84,226,152,239,138,269},{29,32,30,26,37,38,36,31,33,27,34,35,28},{214,227,241,153,271,169,139,101,112,31,60,45,182},{46,17,62,32,204,114,4,125,255,242,215,72,140},{230,127,141,18,184,155,88,102,33,243,171,257,48,217},{274,128,6,185,89,142,19,73,172,115,156,258,244,34,218,103},{104,245,20,186,7,157,143,231,259,64,116,74,90,206,173,35,129},{29,32,30,26,37,38,36,31,33,27,34,35,28},{22,196,51,93,37,118,77,161,67,247,209,9,107,220,176},{198,95,79,24,279,108,38,264,177,163,120,249,221,53},{43,46,41,51,50,52,47,44,54,55,49,45,42,40,39,48,53},{43,46,41,51,50,52,47,44,54,55,49,45,42,40,39,48,53},{43,46,41,51,50,52,47,44,54,55,49,45,42,40,39,48,53},{43,46,41,51,50,52,47,44,54,55,49,45,42,40,39,48,53},{43,46,41,51,50,52,47,44,54,55,49,45,42,40,39,48,53},{43,46,41,51,50,52,47,44,54,55,49,45,42,40,39,48,53},{43,46,41,51,50,52,47,44,54,55,49,45,42,40,39,48,53},{43,46,41,51,50,52,47,44,54,55,49,45,42,40,39,48,53},{43,46,41,51,50,52,47,44,54,55,49,45,42,40,39,48,53},{43,46,41,51,50,52,47,44,54,55,49,45,42,40,39,48,53},{43,46,41,51,50,52,47,44,54,55,49,45,42,40,39,48,53},{43,46,41,51,50,52,47,44,54,55,49,45,42,40,39,48,53},{43,46,41,51,50,52,47,44,54,55,49,45,42,40,39,48,53},{43,46,41,51,50,52,47,44,54,55,49,45,42,40,39,48,53},{43,46,41,51,50,52,47,44,54,55,49,45,42,40,39,48,53},{43,46,41,51,50,52,47,44,54,55,49,45,42,40,39,48,53},{43,46,41,51,50,52,47,44,54,55,49,45,42,40,39,48,53},{57,68,61,62,63,58,65,56,66,59,64,67,60},{57,68,61,62,63,58,65,56,66,59,64,67,60},{57,68,61,62,63,58,65,56,66,59,64,67,60},{57,68,61,62,63,58,65,56,66,59,64,67,60},{57,68,61,62,63,58,65,56,66,59,64,67,60},{57,68,61,62,63,58,65,56,66,59,64,67,60},{57,68,61,62,63,58,65,56,66,59,64,67,60},{57,68,61,62,63,58,65,56,66,59,64,67,60},{104,245,20,186,7,157,143,231,259,64,116,74,90,206,173,35,129},{75,144,91,260,65,232,174,207,105,117,275,130,8,158,187},{57,68,61,62,63,58,65,56,66,59,64,67,60},{57,68,61,62,63,58,65,56,66,59,64,67,60},{57,68,61,62,63,58,65,56,66,59,64,67,60},{15,57,83,137,225,201,180,100,151,69,268,42,123,1,28},{202,43,29,192,58,213,167,70,84,226,152,239,138,269},{61,71,203,254,154,228,272,16,113,194,86,3},{46,17,62,32,204,114,4,125,255,242,215,72,140},{274,128,6,185,89,142,19,73,172,115,156,258,244,34,218,103},{104,245,20,186,7,157,143,231,259,64,116,74,90,206,173,35,129},{75,144,91,260,65,232,174,207,105,117,275,130,8,158,187},{75,71,78,79,77,70,73,69,72,74,80,76},{22,196,51,93,37,118,77,161,67,247,209,9,107,220,176},{132,263,162,119,146,52,78,197,210,278,248,235,10,23,94},{198,95,79,24,279,108,38,264,177,163,120,249,221,53},{75,71,78,79,77,70,73,69,72,74,80,76},{83,91,93,95,85,89,81,88,87,84,94,82,90,96,97,86,92},{83,91,93,95,85,89,81,88,87,84,94,82,90,96,97,86,92},{83,91,93,95,85,89,81,88,87,84,94,82,90,96,97,86,92},{83,91,93,95,85,89,81,88,87,84,94,82,90,96,97,86,92},{83,91,93,95,85,89,81,88,87,84,94,82,90,96,97,86,92},{83,91,93,95,85,89,81,88,87,84,94,82,90,96,97,86,92},{83,91,93,95,85,89,81,88,87,84,94,82,90,96,97,86,92},{83,91,93,95,85,89,81,88,87,84,94,82,90,96,97,86,92},{83,91,93,95,85,89,81,88,87,84,94,82,90,96,97,86,92},{104,245,20,186,7,157,143,231,259,64,116,74,90,206,173,35,129},{75,144,91,260,65,232,174,207,105,117,275,130,8,158,187},{83,91,93,95,85,89,81,88,87,84,94,82,90,96,97,86,92},{83,91,93,95,85,89,81,88,87,84,94,82,90,96,97,86,92},{132,263,162,119,146,52,78,197,210,278,248,235,10,23,94},{83,91,93,95,85,89,81,88,87,84,94,82,90,96,97,86,92},{83,91,93,95,85,89,81,88,87,84,94,82,90,96,97,86,92},{83,91,93,95,85,89,81,88,87,84,94,82,90,96,97,86,92},{252,26,166,81,135,121,223,212,237,12,0,178,98,39},{104,100,108,105,101,102,106,99,107,98,103},{15,57,83,137,225,201,180,100,151,69,268,42,123,1,28},{214,227,241,153,271,169,139,101,112,31,60,45,182},{230,127,141,18,184,155,88,102,33,243,171,257,48,217},{274,128,6,185,89,142,19,73,172,115,156,258,244,34,218,103},{104,245,20,186,7,157,143,231,259,64,116,74,90,206,173,35,129},{75,144,91,260,65,232,174,207,105,117,275,130,8,158,187},{104,100,108,105,101,102,106,99,107,98,103},{22,196,51,93,37,118,77,161,67,247,209,9,107,220,176},{198,95,79,24,279,108,38,264,177,163,120,249,221,53},{109,119,110,114,118,117,112,111,115,116,113,120},{109,119,110,114,118,117,112,111,115,116,113,120},{124,30,193,240,85,59,44,111,270,2,168,181},{214,227,241,153,271,169,139,101,112,31,60,45,182},{109,119,110,114,118,117,112,111,115,116,113,120},{46,17,62,32,204,114,4,125,255,242,215,72,140},{274,128,6,185,89,142,19,73,172,115,156,258,244,34,218,103},{104,245,20,186,7,157,143,231,259,64,116,74,90,206,173,35,129},{75,144,91,260,65,232,174,207,105,117,275,130,8,158,187},{22,196,51,93,37,118,77,161,67,247,209,9,107,220,176},{132,263,162,119,146,52,78,197,210,278,248,235,10,23,94},{198,95,79,24,279,108,38,264,177,163,120,249,221,53},{132,124,128,127,126,133,125,130,122,121,131,134,123,129},{132,124,128,127,126,133,125,130,122,121,131,134,123,129},{15,57,83,137,225,201,180,100,151,69,268,42,123,1,28},{132,124,128,127,126,133,125,130,122,121,131,134,123,129},{132,124,128,127,126,133,125,130,122,121,131,134,123,129},{132,124,128,127,126,133,125,130,122,121,131,134,123,129},{132,124,128,127,126,133,125,130,122,121,131,134,123,129},{274,128,6,185,89,142,19,73,172,115,156,258,244,34,218,103},{104,245,20,186,7,157,143,231,259,64,116,74,90,206,173,35,129},{75,144,91,260,65,232,174,207,105,117,275,130,8,158,187},{132,124,128,127,126,133,125,130,122,121,131,134,123,129},{132,263,162,119,146,52,78,197,210,278,248,235,10,23,94},{132,124,128,127,126,133,125,130,122,121,131,134,123,129},{132,124,128,127,126,133,125,130,122,121,131,134,123,129},{144,141,137,146,148,142,143,135,139,147,140,138,145,136},{144,141,137,146,148,142,143,135,139,147,140,138,145,136},{15,57,83,137,225,201,180,100,151,69,268,42,123,1,28},{202,43,29,192,58,213,167,70,84,226,152,239,138,269},{144,141,137,146,148,142,143,135,139,147,140,138,145,136},{46,17,62,32,204,114,4,125,255,242,215,72,140},{144,141,137,146,148,142,143,135,139,147,140,138,145,136},{274,128,6,185,89,142,19,73,172,115,156,258,244,34,218,103},{104,245,20,186,7,157,143,231,259,64,116,74,90,206,173,35,129},{75,144,91,260,65,232,174,207,105,117,275,130,8,158,187},{144,141,137,146,148,142,143,135,139,147,140,138,145,136},{132,263,162,119,146,52,78,197,210,278,248,235,10,23,94},{144,141,137,146,148,142,143,135,139,147,140,138,145,136},{144,141,137,146,148,142,143,135,139,147,140,138,145,136},{162,149,153,154,157,160,161,155,163,151,152,165,156,158,159,164,150},{162,149,153,154,157,160,161,155,163,151,152,165,156,158,159,164,150},{162,149,153,154,157,160,161,155,163,151,152,165,156,158,159,164,150},{162,149,153,154,157,160,161,155,163,151,152,165,156,158,159,164,150},{162,149,153,154,157,160,161,155,163,151,152,165,156,158,159,164,150},{162,149,153,154,157,160,161,155,163,151,152,165,156,158,159,164,150},{162,149,153,154,157,160,161,155,163,151,152,165,156,158,159,164,150},{162,149,153,154,157,160,161,155,163,151,152,165,156,158,159,164,150},{104,245,20,186,7,157,143,231,259,64,116,74,90,206,173,35,129},{75,144,91,260,65,232,174,207,105,117,275,130,8,158,187},{162,149,153,154,157,160,161,155,163,151,152,165,156,158,159,164,150},{162,149,153,154,157,160,161,155,163,151,152,165,156,158,159,164,150},{162,149,153,154,157,160,161,155,163,151,152,165,156,158,159,164,150},{132,263,162,119,146,52,78,197,210,278,248,235,10,23,94},{162,149,153,154,157,160,161,155,163,151,152,165,156,158,159,164,150},{162,149,153,154,157,160,161,155,163,151,152,165,156,158,159,164,150},{162,149,153,154,157,160,161,155,163,151,152,165,156,158,159,164,150},{252,26,166,81,135,121,223,212,237,12,0,178,98,39},{202,43,29,192,58,213,167,70,84,226,152,239,138,269},{124,30,193,240,85,59,44,111,270,2,168,181},{214,227,241,153,271,169,139,101,112,31,60,45,182},{63,256,183,47,126,87,205,273,195,216,229,170,5},{230,127,141,18,184,155,88,102,33,243,171,257,48,217},{274,128,6,185,89,142,19,73,172,115,156,258,244,34,218,103},{104,245,20,186,7,157,143,231,259,64,116,74,90,206,173,35,129},{75,144,91,260,65,232,174,207,105,117,275,130,8,158,187},{175,21,66,261,49,208,131,233,276,159,188,92},{22,196,51,93,37,118,77,161,67,247,209,9,107,220,176},{198,95,79,24,279,108,38,264,177,163,120,249,221,53},{252,26,166,81,135,121,223,212,237,12,0,178,98,39},{183,186,185,180,179,184,190,189,182,178,187,188,181},{15,57,83,137,225,201,180,100,151,69,268,42,123,1,28},{124,30,193,240,85,59,44,111,270,2,168,181},{214,227,241,153,271,169,139,101,112,31,60,45,182},{63,256,183,47,126,87,205,273,195,216,229,170,5},{230,127,141,18,184,155,88,102,33,243,171,257,48,217},{274,128,6,185,89,142,19,73,172,115,156,258,244,34,218,103},{104,245,20,186,7,157,143,231,259,64,116,74,90,206,173,35,129},{75,144,91,260,65,232,174,207,105,117,275,130,8,158,187},{183,186,185,180,179,184,190,189,182,178,187,188,181},{68,280,250,11,133,265,54,211,222,189,147,96,164},{183,186,185,180,179,184,190,189,182,178,187,188,181},{109,238,149,266,13,200,99,82,40,191,136},{202,43,29,192,58,213,167,70,84,226,152,239,138,269},{124,30,193,240,85,59,44,111,270,2,168,181},{61,71,203,254,154,228,272,16,113,194,86,3},{63,256,183,47,126,87,205,273,195,216,229,170,5},{22,196,51,93,37,118,77,161,67,247,209,9,107,220,176},{132,263,162,119,146,52,78,197,210,278,248,235,10,23,94},{198,95,79,24,279,108,38,264,177,163,120,249,221,53},{25,236,148,199,190,55,251,134,165,80,97},{202,203,204,201,207,210,211,208,205,209,200,206},{15,57,83,137,225,201,180,100,151,69,268,42,123,1,28},{202,43,29,192,58,213,167,70,84,226,152,239,138,269},{202,203,204,201,207,210,211,208,205,209,200,206},{46,17,62,32,204,114,4,125,255,242,215,72,140},{202,203,204,201,207,210,211,208,205,209,200,206},{104,245,20,186,7,157,143,231,259,64,116,74,90,206,173,35,129},{75,144,91,260,65,232,174,207,105,117,275,130,8,158,187},{202,203,204,201,207,210,211,208,205,209,200,206},{22,196,51,93,37,118,77,161,67,247,209,9,107,220,176},{132,263,162,119,146,52,78,197,210,278,248,235,10,23,94},{68,280,250,11,133,265,54,211,222,189,147,96,164},{252,26,166,81,135,121,223,212,237,12,0,178,98,39},{202,43,29,192,58,213,167,70,84,226,152,239,138,269},{214,227,241,153,271,169,139,101,112,31,60,45,182},{46,17,62,32,204,114,4,125,255,242,215,72,140},{63,256,183,47,126,87,205,273,195,216,229,170,5},{230,127,141,18,184,155,88,102,33,243,171,257,48,217},{274,128,6,185,89,142,19,73,172,115,156,258,244,34,218,103},{277,50,160,36,234,106,246,145,219,76,262},{22,196,51,93,37,118,77,161,67,247,209,9,107,220,176},{198,95,79,24,279,108,38,264,177,163,120,249,221,53},{68,280,250,11,133,265,54,211,222,189,147,96,164},{230,225,227,236,232,228,231,234,224,223,226,235,233,229},{230,225,227,236,232,228,231,234,224,223,226,235,233,229},{15,57,83,137,225,201,180,100,151,69,268,42,123,1,28},{202,43,29,192,58,213,167,70,84,226,152,239,138,269},{230,225,227,236,232,228,231,234,224,223,226,235,233,229},{230,225,227,236,232,228,231,234,224,223,226,235,233,229},{230,225,227,236,232,228,231,234,224,223,226,235,233,229},{230,225,227,236,232,228,231,234,224,223,226,235,233,229},{104,245,20,186,7,157,143,231,259,64,116,74,90,206,173,35,129},{75,144,91,260,65,232,174,207,105,117,275,130,8,158,187},{230,225,227,236,232,228,231,234,224,223,226,235,233,229},{230,225,227,236,232,228,231,234,224,223,226,235,233,229},{132,263,162,119,146,52,78,197,210,278,248,235,10,23,94},{230,225,227,236,232,228,231,234,224,223,226,235,233,229},{245,240,238,250,241,247,248,237,242,243,251,239,249,244,246},{245,240,238,250,241,247,248,237,242,243,251,239,249,244,246},{202,43,29,192,58,213,167,70,84,226,152,239,138,269},{245,240,238,250,241,247,248,237,242,243,251,239,249,244,246},{245,240,238,250,241,247,248,237,242,243,251,239,249,244,246},{46,17,62,32,204,114,4,125,255,242,215,72,140},{245,240,238,250,241,247,248,237,242,243,251,239,249,244,246},{274,128,6,185,89,142,19,73,172,115,156,258,244,34,218,103},{104,245,20,186,7,157,143,231,259,64,116,74,90,206,173,35,129},{245,240,238,250,241,247,248,237,242,243,251,239,249,244,246},{22,196,51,93,37,118,77,161,67,247,209,9,107,220,176},{132,263,162,119,146,52,78,197,210,278,248,235,10,23,94},{198,95,79,24,279,108,38,264,177,163,120,249,221,53},{245,240,238,250,241,247,248,237,242,243,251,239,249,244,246},{245,240,238,250,241,247,248,237,242,243,251,239,249,244,246},{263,252,256,260,254,261,264,265,259,255,253,258,257,262},{263,252,256,260,254,261,264,265,259,255,253,258,257,262},{263,252,256,260,254,261,264,265,259,255,253,258,257,262},{263,252,256,260,254,261,264,265,259,255,253,258,257,262},{263,252,256,260,254,261,264,265,259,255,253,258,257,262},{263,252,256,260,254,261,264,265,259,255,253,258,257,262},{274,128,6,185,89,142,19,73,172,115,156,258,244,34,218,103},{104,245,20,186,7,157,143,231,259,64,116,74,90,206,173,35,129},{75,144,91,260,65,232,174,207,105,117,275,130,8,158,187},{263,252,256,260,254,261,264,265,259,255,253,258,257,262},{263,252,256,260,254,261,264,265,259,255,253,258,257,262},{132,263,162,119,146,52,78,197,210,278,248,235,10,23,94},{263,252,256,260,254,261,264,265,259,255,253,258,257,262},{263,252,256,260,254,261,264,265,259,255,253,258,257,262},{274,277,280,266,271,279,272,275,278,273,270,268,276,269,267},{274,277,280,266,271,279,272,275,278,273,270,268,276,269,267},{15,57,83,137,225,201,180,100,151,69,268,42,123,1,28},{202,43,29,192,58,213,167,70,84,226,152,239,138,269},{274,277,280,266,271,279,272,275,278,273,270,268,276,269,267},{274,277,280,266,271,279,272,275,278,273,270,268,276,269,267},{274,277,280,266,271,279,272,275,278,273,270,268,276,269,267},{274,277,280,266,271,279,272,275,278,273,270,268,276,269,267},{274,128,6,185,89,142,19,73,172,115,156,258,244,34,218,103},{75,144,91,260,65,232,174,207,105,117,275,130,8,158,187},{274,277,280,266,271,279,272,275,278,273,270,268,276,269,267},{274,277,280,266,271,279,272,275,278,273,270,268,276,269,267},{132,263,162,119,146,52,78,197,210,278,248,235,10,23,94},{274,277,280,266,271,279,272,275,278,273,270,268,276,269,267},{274,277,280,266,271,279,272,275,278,273,270,268,276,269,267}];
nr_cliques=281;
